
                      S T R E S S E S   I N   H E X A H E D R O N   S O L I D   E L E M E N T S   ( H E X A )
0                CORNER        ------CENTER AND CORNER POINT STRESSES---------       DIR.  COSINES       MEAN
  ELEMENT-ID    GRID-ID        NORMAL              SHEAR             PRINCIPAL       -A-  -B-  -C-     PRESSURE       VON MISES
0       385           0GRID CS  8 GP
0                CENTER  X  -5.000000E-01  XY   1.282195E-02   A  -8.993156E-02  LX 0.04 1.00-0.06   2.304647E-01    4.070141E-01
                         Y  -9.039484E-02  YZ   5.273322E-05   B  -5.017487E-01  LY 1.00-0.03 0.08
                         Z  -1.009992E-01  ZX   2.325264E-02   C  -9.971386E-02  LZ 0.08-0.06-1.00
0                     1  X  -5.718492E-01  XY   2.552421E-02   A  -1.885102E-01  LX 0.12 0.99-0.05   3.205215E-01    3.870387E-01
                         Y  -1.925449E-01  YZ   3.515548E-05   B  -5.785239E-01  LY 0.78-0.07 0.63
                         Z  -1.971704E-01  ZX   4.361117E-02   C  -1.945305E-01  LZ 0.62-0.11-0.78
0                     9  X  -5.478069E-01  XY   2.524235E-02   A  -1.807684E-01  LX 0.07 1.00-0.02   3.057931E-01    3.660598E-01
                         Y  -1.825986E-01  YZ   7.199436E-05   B  -5.498081E-01  LY 0.99-0.07 0.13
                         Z  -1.869738E-01  ZX   9.830597E-03   C  -1.868027E-01  LZ 0.12-0.03-0.99
0                   133  X  -4.375001E-01  XY   2.001775E-02   A   8.131018E-03  LX 0.05 1.00-0.01   1.464612E-01    4.381905E-01
                         Y   7.222561E-03  YZ   2.686866E-04   B  -4.384188E-01  LY 1.00-0.04 0.02
                         Z  -9.105957E-03  ZX   2.907713E-03   C  -9.095707E-03  LZ 0.02-0.01-1.00
0                    10  X  -4.610296E-01  XY   2.043165E-02   A  -4.205243E-04  LX 0.05 1.00-0.08   1.604488E-01    4.569452E-01
                         Y  -1.527047E-03  YZ   1.312020E-04   B  -4.649464E-01  LY 0.99-0.04 0.12
                         Z  -1.878969E-02  ZX   3.668829E-02   C  -1.597941E-02  LZ 0.11-0.08-0.99
0                   130  X  -5.629096E-01  XY   5.474645E-03   A  -1.877686E-01  LX 0.10 0.99 0.06   3.149647E-01    3.796653E-01
                         Y  -1.886978E-01  YZ  -2.741899E-05   B  -5.680737E-01  LY 0.58-0.01-0.81
                         Z  -1.932865E-01  ZX   4.365575E-02   C  -1.890516E-01  LZ 0.81-0.12 0.58
0                   220  X  -5.386361E-01  XY   5.363740E-03   A  -1.785668E-01  LX 0.02 1.00-0.03   3.000932E-01    3.583590E-01
                         Y  -1.786525E-01  YZ   9.419882E-06   B  -5.389871E-01  LY 1.00-0.01 0.04
                         Z  -1.829909E-01  ZX   9.824851E-03   C  -1.827256E-01  LZ 0.04-0.03-1.00
0                   251  X  -4.282539E-01  XY   1.391367E-04   A   1.124425E-02  LX 0.00 1.00-0.01   1.406522E-01    4.316584E-01
                         Y   1.124413E-02  YZ   3.515548E-05   B  -4.282730E-01  LY 1.00 0.00 0.00
                         Z  -4.946906E-03  ZX   2.835946E-03   C  -4.927988E-03  LZ 0.00-0.01-1.00
0                   249  X  -4.520145E-01  XY   3.820842E-04   A   2.396169E-03  LX 0.00 1.00-0.08   1.547829E-01    4.505926E-01
                         Y   2.395487E-03  YZ  -1.023291E-04   B  -4.550681E-01  LY 1.00 0.00 0.00
                         Z  -1.472967E-02  ZX   3.666684E-02   C  -1.167678E-02  LZ-0.01-0.08-1.00
0       386           0GRID CS  8 GP
0                CENTER  X  -5.000000E-01  XY  -1.282195E-02   A  -8.993156E-02  LX-0.04 1.00-0.06   2.304647E-01    4.070141E-01
                         Y  -9.039484E-02  YZ  -5.273322E-05   B  -5.017487E-01  LY 1.00 0.03-0.08
                         Z  -1.009992E-01  ZX   2.325264E-02   C  -9.971386E-02  LZ-0.08-0.06-1.00
0                   130  X  -5.629096E-01  XY  -5.474645E-03   A  -1.877686E-01  LX 0.10 0.99-0.06   3.149647E-01    3.796653E-01
                         Y  -1.886978E-01  YZ   2.741899E-05   B  -5.680737E-01  LY-0.58 0.01-0.81
                         Z  -1.932865E-01  ZX   4.365575E-02   C  -1.890516E-01  LZ 0.81-0.12-0.58
1 PAGE

0                                                                                                            SUBCASE 1

                      S T R E S S E S   I N   H E X A H E D R O N   S O L I D   E L E M E N T S   ( H E X A )
0                CORNER        ------CENTER AND CORNER POINT STRESSES---------       DIR.  COSINES       MEAN
  ELEMENT-ID    GRID-ID        NORMAL              SHEAR             PRINCIPAL       -A-  -B-  -C-     PRESSURE       VON MISES
0                   220  X  -5.386361E-01  XY  -5.363740E-03   A  -1.785668E-01  LX-0.02 1.00-0.03   3.000932E-01    3.583590E-01
                         Y  -1.786525E-01  YZ  -9.419882E-06   B  -5.389871E-01  LY 1.00 0.01-0.04
                         Z  -1.829909E-01  ZX   9.824851E-03   C  -1.827256E-01  LZ-0.04-0.03-1.00
0                   251  X  -4.282539E-01  XY  -1.391367E-04   A   1.124425E-02  LX 0.00 1.00-0.01   1.406522E-01    4.316584E-01
                         Y   1.124413E-02  YZ  -3.515548E-05   B  -4.282730E-01  LY 1.00 0.00 0.00
                         Z  -4.946906E-03  ZX   2.835946E-03   C  -4.927988E-03  LZ 0.00-0.01-1.00
0                   249  X  -4.520145E-01  XY  -3.820842E-04   A   2.396169E-03  LX 0.00 1.00-0.08   1.547829E-01    4.505926E-01
                         Y   2.395487E-03  YZ   1.023291E-04   B  -4.550681E-01  LY 1.00 0.00 0.00
                         Z  -1.472967E-02  ZX   3.666684E-02   C  -1.167678E-02  LZ 0.01-0.08-1.00
0                     5  X  -5.718492E-01  XY  -2.552421E-02   A  -1.885102E-01  LX-0.12 0.99-0.05   3.205215E-01    3.870387E-01
                         Y  -1.925449E-01  YZ  -3.515548E-05   B  -5.785239E-01  LY 0.78 0.07-0.63
                         Z  -1.971704E-01  ZX   4.361117E-02   C  -1.945305E-01  LZ-0.62-0.11-0.78
0                    69  X  -5.478069E-01  XY  -2.524235E-02   A  -1.807684E-01  LX-0.07 1.00-0.02   3.057931E-01    3.660598E-01
                         Y  -1.825986E-01  YZ  -7.199436E-05   B  -5.498081E-01  LY 0.99 0.07-0.13
                         Z  -1.869738E-01  ZX   9.830597E-03   C  -1.868027E-01  LZ-0.12-0.03-0.99
0                   162  X  -4.375001E-01  XY  -2.001775E-02   A   8.131018E-03  LX-0.05 1.00-0.01   1.464612E-01    4.381905E-01
                         Y   7.222561E-03  YZ  -2.686866E-04   B  -4.384188E-01  LY 1.00 0.04-0.02
                         Z  -9.105957E-03  ZX   2.907713E-03   C  -9.095707E-03  LZ-0.02-0.01-1.00
0                    70  X  -4.610296E-01  XY  -2.043165E-02   A  -4.205243E-04  LX-0.05 1.00-0.08   1.604488E-01    4.569452E-01
                         Y  -1.527047E-03  YZ  -1.312020E-04   B  -4.649464E-01  LY 0.99 0.04-0.12
                         Z  -1.878969E-02  ZX   3.668829E-02   C  -1.597941E-02  LZ-0.11-0.08-0.99
0       445           0GRID CS  8 GP
0                CENTER  X  -5.000000E-01  XY   1.282195E-02   A  -8.993156E-02  LX 0.04 1.00 0.06   2.304647E-01    4.070141E-01
                         Y  -9.039484E-02  YZ  -5.273322E-05   B  -5.017487E-01  LY 1.00-0.03-0.08
                         Z  -1.009992E-01  ZX  -2.325264E-02   C  -9.971386E-02  LZ-0.08 0.06-1.00
0                     9  X  -5.478069E-01  XY   2.524235E-02   A  -1.807684E-01  LX 0.07 1.00 0.02   3.057931E-01    3.660598E-01
                         Y  -1.825986E-01  YZ  -7.199436E-05   B  -5.498081E-01  LY 0.99-0.07-0.13
                         Z  -1.869738E-01  ZX  -9.830597E-03   C  -1.868027E-01  LZ-0.12 0.03-0.99
0                     2  X  -5.718492E-01  XY   2.552421E-02   A  -1.885102E-01  LX 0.12 0.99 0.05   3.205215E-01    3.870387E-01
                         Y  -1.925449E-01  YZ  -3.515548E-05   B  -5.785239E-01  LY 0.78-0.07-0.63
                         Z  -1.971704E-01  ZX  -4.361117E-02   C  -1.945305E-01  LZ-0.62 0.11-0.78
0                    40  X  -4.610296E-01  XY   2.043165E-02   A  -4.205243E-04  LX 0.05 1.00 0.08   1.604488E-01    4.569452E-01
                         Y  -1.527047E-03  YZ  -1.312020E-04   B  -4.649464E-01  LY 0.99-0.04-0.12
                         Z  -1.878969E-02  ZX  -3.668829E-02   C  -1.597941E-02  LZ-0.11 0.08-0.99
0                   133  X  -4.375001E-01  XY   2.001775E-02   A   8.131018E-03  LX 0.05 1.00 0.01   1.464612E-01    4.381905E-01
                         Y   7.222561E-03  YZ  -2.686866E-04   B  -4.384188E-01  LY 1.00-0.04-0.02
                         Z  -9.105957E-03  ZX  -2.907713E-03   C  -9.095707E-03  LZ-0.02 0.01-1.00
1 PAGE

0                                                                                                            SUBCASE 1

                      S T R E S S E S   I N   H E X A H E D R O N   S O L I D   E L E M E N T S   ( H E X A )
0                CORNER        ------CENTER AND CORNER POINT STRESSES---------       DIR.  COSINES       MEAN
  ELEMENT-ID    GRID-ID        NORMAL              SHEAR             PRINCIPAL       -A-  -B-  -C-     PRESSURE       VON MISES
0                   220  X  -5.386361E-01  XY   5.363740E-03   A  -1.785668E-01  LX 0.02 1.00 0.03   3.000932E-01    3.583590E-01
                         Y  -1.786525E-01  YZ  -9.419882E-06   B  -5.389871E-01  LY 1.00-0.01-0.04
                         Z  -1.829909E-01  ZX  -9.824851E-03   C  -1.827256E-01  LZ-0.04 0.03-1.00
0                   129  X  -5.629096E-01  XY   5.474645E-03   A  -1.877686E-01  LX-0.10 0.99 0.06   3.149647E-01    3.796653E-01
                         Y  -1.886978E-01  YZ   2.741899E-05   B  -5.680737E-01  LY-0.58-0.01-0.81
                         Z  -1.932865E-01  ZX  -4.365575E-02   C  -1.890516E-01  LZ 0.81 0.12-0.58
0                   191  X  -4.520145E-01  XY   3.820842E-04   A   2.396169E-03  LX 0.00 1.00 0.08   1.547829E-01    4.505926E-01
                         Y   2.395487E-03  YZ   1.023291E-04   B  -4.550681E-01  LY 1.00 0.00 0.00
                         Z  -1.472967E-02  ZX  -3.666684E-02   C  -1.167678E-02  LZ 0.01 0.08-1.00
0                   251  X  -4.282539E-01  XY   1.391367E-04   A   1.124425E-02  LX 0.00 1.00 0.01   1.406522E-01    4.316584E-01
                         Y   1.124413E-02  YZ  -3.515548E-05   B  -4.282730E-01  LY 1.00 0.00 0.00
                         Z  -4.946906E-03  ZX  -2.835946E-03   C  -4.927988E-03  LZ 0.00 0.01-1.00
0       446           0GRID CS  8 GP
0                CENTER  X  -5.000000E-01  XY  -1.282195E-02   A  -8.993156E-02  LX-0.04 1.00 0.06   2.304647E-01    4.070141E-01
                         Y  -9.039484E-02  YZ   5.273322E-05   B  -5.017487E-01  LY 1.00 0.03 0.08
                         Z  -1.009992E-01  ZX  -2.325264E-02   C  -9.971386E-02  LZ 0.08 0.06-1.00
0                   220  X  -5.386361E-01  XY  -5.363740E-03   A  -1.785668E-01  LX-0.02 1.00 0.03   3.000932E-01    3.583590E-01
                         Y  -1.786525E-01  YZ   9.419882E-06   B  -5.389871E-01  LY 1.00 0.01 0.04
                         Z  -1.829909E-01  ZX  -9.824851E-03   C  -1.827256E-01  LZ 0.04 0.03-1.00
0                   129  X  -5.629096E-01  XY  -5.474645E-03   A  -1.877686E-01  LX-0.10 0.99-0.06   3.149647E-01    3.796653E-01
                         Y  -1.886978E-01  YZ  -2.741899E-05   B  -5.680737E-01  LY 0.58 0.01-0.81
                         Z  -1.932865E-01  ZX  -4.365575E-02   C  -1.890516E-01  LZ 0.81 0.12 0.58
0                   191  X  -4.520145E-01  XY  -3.820842E-04   A   2.396169E-03  LX 0.00 1.00 0.08   1.547829E-01    4.505926E-01
                         Y   2.395487E-03  YZ  -1.023291E-04   B  -4.550681E-01  LY 1.00 0.00 0.00
                         Z  -1.472967E-02  ZX  -3.666684E-02   C  -1.167678E-02  LZ-0.01 0.08-1.00
0                   251  X  -4.282539E-01  XY  -1.391367E-04   A   1.124425E-02  LX 0.00 1.00 0.01   1.406522E-01    4.316584E-01
                         Y   1.124413E-02  YZ   3.515548E-05   B  -4.282730E-01  LY 1.00 0.00 0.00
                         Z  -4.946906E-03  ZX  -2.835946E-03   C  -4.927988E-03  LZ 0.00 0.01-1.00
0                    69  X  -5.478069E-01  XY  -2.524235E-02   A  -1.807684E-01  LX-0.07 1.00 0.02   3.057931E-01    3.660598E-01
                         Y  -1.825986E-01  YZ   7.199436E-05   B  -5.498081E-01  LY 0.99 0.07 0.13
                         Z  -1.869738E-01  ZX  -9.830597E-03   C  -1.868027E-01  LZ 0.12 0.03-0.99
0                     6  X  -5.718492E-01  XY  -2.552421E-02   A  -1.885102E-01  LX-0.12 0.99 0.05   3.205215E-01    3.870387E-01
                         Y  -1.925449E-01  YZ   3.515548E-05   B  -5.785239E-01  LY 0.78 0.07 0.63
                         Z  -1.971704E-01  ZX  -4.361117E-02   C  -1.945305E-01  LZ 0.62 0.11-0.78
0                   100  X  -4.610296E-01  XY  -2.043165E-02   A  -4.205243E-04  LX-0.05 1.00 0.08   1.604488E-01    4.569452E-01
                         Y  -1.527047E-03  YZ   1.312020E-04   B  -4.649464E-01  LY 0.99 0.04 0.12
                         Z  -1.878969E-02  ZX  -3.668829E-02   C  -1.597941E-02  LZ 0.11 0.08-0.99
1 PAGE
                                                                                                                                    
0                                                                                                            SUBCASE 1              
 
                      S T R E S S E S   I N   H E X A H E D R O N   S O L I D   E L E M E N T S   ( H E X A )
0                CORNER        ------CENTER AND CORNER POINT STRESSES---------       DIR.  COSINES       MEAN                   
  ELEMENT-ID    GRID-ID        NORMAL              SHEAR             PRINCIPAL       -A-  -B-  -C-     PRESSURE       VON MISES 
0                   162  X  -4.375001E-01  XY  -2.001775E-02   A   8.131018E-03  LX-0.05 1.00 0.01   1.464612E-01    4.381905E-01
                         Y   7.222561E-03  YZ   2.686866E-04   B  -4.384188E-01  LY 1.00 0.04 0.02
                         Z  -9.105957E-03  ZX  -2.907713E-03   C  -9.095707E-03  LZ 0.02 0.01-1.00
