
0                                                                                                            SUBCASE 1

                   S T R E S S E S   I N    T E T R A H E D R O N   S O L I D   E L E M E N T S   ( C T E T R A )
0                CORNER        ------CENTER AND CORNER POINT STRESSES---------       DIR.  COSINES       MEAN
  ELEMENT-ID    GRID-ID        NORMAL              SHEAR             PRINCIPAL       -A-  -B-  -C-     PRESSURE       VON MISES
0       551           0GRID CS  4 GP
0                CENTER  X  -5.086108E-01  XY   5.015129E-02   A  -2.092143E-01  LX 0.17 0.99 0.00   3.148544E-01    3.038723E-01
                         Y  -2.179761E-01  YZ  -1.741783E-18   B  -5.173727E-01  LY 0.97-0.17 0.20
                         Z  -2.179761E-01  ZX   1.039771E-02   C  -2.179761E-01  LZ 0.20-0.03-0.98
0                     6  X  -5.086108E-01  XY   5.015129E-02   A  -2.092143E-01  LX 0.17 0.99 0.00   3.148544E-01    3.038723E-01
                         Y  -2.179761E-01  YZ   2.623790E-17   B  -5.173727E-01  LY 0.97-0.17 0.20
                         Z  -2.179761E-01  ZX   1.039771E-02   C  -2.179761E-01  LZ 0.20-0.03-0.98
0                   136  X  -5.086108E-01  XY   5.015129E-02   A  -2.092143E-01  LX 0.17 0.99 0.00   3.148544E-01    3.038723E-01
                         Y  -2.179761E-01  YZ   2.623790E-17   B  -5.173727E-01  LY 0.97-0.17 0.20
                         Z  -2.179761E-01  ZX   1.039771E-02   C  -2.179761E-01  LZ 0.20-0.03-0.98
0                   168  X  -5.086108E-01  XY   5.015129E-02   A  -2.092143E-01  LX 0.17 0.99 0.00   3.148544E-01    3.038723E-01
                         Y  -2.179761E-01  YZ   2.623790E-17   B  -5.173727E-01  LY 0.97-0.17 0.20
                         Z  -2.179761E-01  ZX   1.039771E-02   C  -2.179761E-01  LZ 0.20-0.03-0.98
0                   134  X  -5.086108E-01  XY   5.015129E-02   A  -2.092143E-01  LX 0.17 0.99 0.00   3.148544E-01    3.038723E-01
                         Y  -2.179761E-01  YZ   2.623790E-17   B  -5.173727E-01  LY 0.97-0.17 0.20
                         Z  -2.179761E-01  ZX   1.039771E-02   C  -2.179761E-01  LZ 0.20-0.03-0.98
0       573           0GRID CS  4 GP
0                CENTER  X  -5.918833E-01  XY   3.612536E-02   A  -2.335519E-01  LX-0.23 0.97 0.00   3.664040E-01    3.687991E-01
                         Y  -2.536643E-01  YZ  -2.098055E-17   B  -6.119956E-01  LY-0.41-0.10-0.90
                         Z  -2.536643E-01  ZX  -7.682347E-02   C  -2.536643E-01  LZ 0.88 0.21-0.43
0                     3  X  -5.918833E-01  XY   3.612536E-02   A  -2.335519E-01  LX-0.23 0.97 0.00   3.664040E-01    3.687991E-01
                         Y  -2.536643E-01  YZ  -2.471393E-17   B  -6.119956E-01  LY-0.41-0.10-0.90
                         Z  -2.536643E-01  ZX  -7.682347E-02   C  -2.536643E-01  LZ 0.88 0.21-0.43
0                     1  X  -5.918833E-01  XY   3.612536E-02   A  -2.335519E-01  LX-0.23 0.97 0.00   3.664040E-01    3.687991E-01
                         Y  -2.536643E-01  YZ  -2.471393E-17   B  -6.119956E-01  LY-0.41-0.10-0.90
                         Z  -2.536643E-01  ZX  -7.682347E-02   C  -2.536643E-01  LZ 0.88 0.21-0.43
0                   135  X  -5.918833E-01  XY   3.612536E-02   A  -2.335519E-01  LX-0.23 0.97 0.00   3.664040E-01    3.687991E-01
                         Y  -2.536643E-01  YZ  -2.471393E-17   B  -6.119956E-01  LY-0.41-0.10-0.90
                         Z  -2.536643E-01  ZX  -7.682347E-02   C  -2.536643E-01  LZ 0.88 0.21-0.43
0                    71  X  -5.918833E-01  XY   3.612536E-02   A  -2.335519E-01  LX-0.23 0.97 0.00   3.664040E-01    3.687991E-01
                         Y  -2.536643E-01  YZ  -2.471393E-17   B  -6.119956E-01  LY-0.41-0.10-0.90
                         Z  -2.536643E-01  ZX  -7.682347E-02   C  -2.536643E-01  LZ 0.88 0.21-0.43
0       578           0GRID CS  4 GP
0                CENTER  X  -6.594881E-01  XY  -6.110317E-02   A  -2.627344E-01  LX 0.22 0.98 0.00   4.082545E-01    4.070705E-01
                         Y  -2.826377E-01  YZ  -2.350299E-18   B  -6.793914E-01  LY-0.67 0.15-0.73
                         Z  -2.826377E-01  ZX   6.452240E-02   C  -2.826377E-01  LZ 0.71-0.16-0.69
1 PAGE

0                                                                                                            SUBCASE 1

                   S T R E S S E S   I N    T E T R A H E D R O N   S O L I D   E L E M E N T S   ( C T E T R A )
0                CORNER        ------CENTER AND CORNER POINT STRESSES---------       DIR.  COSINES       MEAN
  ELEMENT-ID    GRID-ID        NORMAL              SHEAR             PRINCIPAL       -A-  -B-  -C-     PRESSURE       VON MISES
0                    42  X  -6.594881E-01  XY  -6.110317E-02   A  -2.627344E-01  LX 0.22 0.98 0.00   4.082545E-01    4.070705E-01
                         Y  -2.826377E-01  YZ  -2.350299E-18   B  -6.793914E-01  LY-0.67 0.15-0.73
                         Z  -2.826377E-01  ZX   6.452240E-02   C  -2.826377E-01  LZ 0.71-0.16-0.69
0                     5  X  -6.594881E-01  XY  -6.110317E-02   A  -2.627344E-01  LX 0.22 0.98 0.00   4.082545E-01    4.070705E-01
                         Y  -2.826377E-01  YZ  -2.350299E-18   B  -6.793914E-01  LY-0.67 0.15-0.73
                         Z  -2.826377E-01  ZX   6.452240E-02   C  -2.826377E-01  LZ 0.71-0.16-0.69
0                     6  X  -6.594881E-01  XY  -6.110317E-02   A  -2.627344E-01  LX 0.22 0.98 0.00   4.082545E-01    4.070705E-01
                         Y  -2.826377E-01  YZ  -2.350299E-18   B  -6.793914E-01  LY-0.67 0.15-0.73
                         Z  -2.826377E-01  ZX   6.452240E-02   C  -2.826377E-01  LZ 0.71-0.16-0.69
0                   134  X  -6.594881E-01  XY  -6.110317E-02   A  -2.627344E-01  LX 0.22 0.98 0.00   4.082545E-01    4.070705E-01
                         Y  -2.826377E-01  YZ  -2.350299E-18   B  -6.793914E-01  LY-0.67 0.15-0.73
                         Z  -2.826377E-01  ZX   6.452240E-02   C  -2.826377E-01  LZ 0.71-0.16-0.69
0       580           0GRID CS  4 GP
0                CENTER  X  -5.086108E-01  XY   5.015129E-02   A  -2.092143E-01  LX 0.17 0.99 0.00   3.148544E-01    3.038723E-01
                         Y  -2.179761E-01  YZ  -1.231924E-17   B  -5.173727E-01  LY 0.97-0.17 0.20
                         Z  -2.179761E-01  ZX   1.039771E-02   C  -2.179761E-01  LZ 0.20-0.03-0.98
0                   168  X  -5.086108E-01  XY   5.015129E-02   A  -2.092143E-01  LX 0.17 0.99 0.00   3.148544E-01    3.038723E-01
                         Y  -2.179761E-01  YZ  -1.231924E-17   B  -5.173727E-01  LY 0.97-0.17 0.20
                         Z  -2.179761E-01  ZX   1.039771E-02   C  -2.179761E-01  LZ 0.20-0.03-0.98
0                   136  X  -5.086108E-01  XY   5.015129E-02   A  -2.092143E-01  LX 0.17 0.99 0.00   3.148544E-01    3.038723E-01
                         Y  -2.179761E-01  YZ  -1.231924E-17   B  -5.173727E-01  LY 0.97-0.17 0.20
                         Z  -2.179761E-01  ZX   1.039771E-02   C  -2.179761E-01  LZ 0.20-0.03-0.98
0                   199  X  -5.086108E-01  XY   5.015129E-02   A  -2.092143E-01  LX 0.17 0.99 0.00   3.148544E-01    3.038723E-01
                         Y  -2.179761E-01  YZ  -1.231924E-17   B  -5.173727E-01  LY 0.97-0.17 0.20
                         Z  -2.179761E-01  ZX   1.039771E-02   C  -2.179761E-01  LZ 0.20-0.03-0.98
0                   134  X  -5.086108E-01  XY   5.015129E-02   A  -2.092143E-01  LX 0.17 0.99 0.00   3.148544E-01    3.038723E-01
                         Y  -2.179761E-01  YZ  -1.231924E-17   B  -5.173727E-01  LY 0.97-0.17 0.20
                         Z  -2.179761E-01  ZX   1.039771E-02   C  -2.179761E-01  LZ 0.20-0.03-0.98
