
0                                                                                                            SUBCASE 1

                                             D I S P L A C E M E N T   V E C T O R

      POINT ID.   TYPE          T1             T2             T3             R1             R2             R3
             7      G     -7.463266E-04  -1.054582E-05   1.882710E-05   0.0            0.0            0.0
             8      G     -7.467982E-04  -1.804582E-05   1.917972E-05   0.0            0.0            0.0
             9      G     -7.465624E-04  -1.429582E-05   1.900341E-05   0.0            0.0            0.0
            10      G     -7.481122E-04  -9.840564E-06   3.382709E-05   0.0            0.0            0.0
            11      G     -7.485838E-04  -1.734056E-05   3.417972E-05   0.0            0.0            0.0
            12      G     -7.483480E-04  -1.359056E-05   3.400341E-05   0.0            0.0            0.0
           129      G     -7.473166E-04  -1.784106E-05   2.353482E-05   0.0            0.0            0.0
           130      G     -7.479921E-04  -1.757425E-05   2.920947E-05   0.0            0.0            0.0
           131      G     -7.468450E-04  -1.034106E-05   2.318219E-05   0.0            0.0            0.0
           132      G     -7.475205E-04  -1.007425E-05   2.885684E-05   0.0            0.0            0.0
           200      G     -7.472575E-04  -1.407277E-05   2.481865E-05   0.0            0.0            0.0

0                                                                                                            SUBCASE 2

                                             D I S P L A C E M E N T   V E C T O R

      POINT ID.   TYPE          T1             T2             T3             R1             R2             R3
             7      G      1.553179E-02  -7.311474E-01  -3.987953E-02   0.0            0.0            0.0
             8      G     -2.033016E-02  -7.311490E-01  -3.922795E-02   0.0            0.0            0.0
             9      G     -2.402878E-03  -7.311428E-01  -3.955417E-02   0.0            0.0            0.0
            10      G      2.030107E-02  -7.298201E-01  -3.989421E-02   0.0            0.0            0.0
            11      G     -1.555106E-02  -7.298192E-01  -3.921830E-02   0.0            0.0            0.0
            12      G      2.374370E-03  -7.298163E-01  -3.955898E-02   0.0            0.0            0.0
           129      G     -1.894487E-02  -7.307677E-01  -3.922644E-02   0.0            0.0            0.0
           130      G     -1.712752E-02  -7.302616E-01  -3.922205E-02   0.0            0.0            0.0
           131      G      1.691799E-02  -7.307663E-01  -3.988281E-02   0.0            0.0            0.0
           132      G      1.871059E-02  -7.302570E-01  -3.989129E-02   0.0            0.0            0.0
           200      G     -7.938705E-04  -7.306334E-01  -3.955269E-02   0.0            0.0            0.0

0                                                                                                            SUBCASE 3

                                             D I S P L A C E M E N T   V E C T O R

      POINT ID.   TYPE          T1             T2             T3             R1             R2             R3
             7      G     -2.211881E-02  -3.933459E-02  -4.701621E-01   0.0            0.0            0.0
             8      G     -2.435207E-02  -3.933793E-02  -4.703832E-01   0.0            0.0            0.0
             9      G     -2.323600E-02  -3.933639E-02  -4.702730E-01   0.0            0.0            0.0
            10      G      2.439292E-02  -3.977915E-02  -4.701551E-01   0.0            0.0            0.0
            11      G      2.216910E-02  -3.977281E-02  -4.703781E-01   0.0            0.0            0.0
            12      G      2.328001E-02  -3.977562E-02  -4.702665E-01   0.0            0.0            0.0
           129      G     -1.083795E-02  -3.946415E-02  -4.703766E-01   0.0            0.0            0.0
           130      G      6.758393E-03  -3.962668E-02  -4.703733E-01   0.0            0.0            0.0
           131      G     -8.603137E-03  -3.946515E-02  -4.701557E-01   0.0            0.0            0.0
           132      G      8.984675E-03  -3.963258E-02  -4.701501E-01   0.0            0.0            0.0
           200      G     -5.218122E-03  -3.950770E-02  -4.702663E-01   0.0            0.0            0.0

0                                                                                                            SUBCASE 4

                                             D I S P L A C E M E N T   V E C T O R

      POINT ID.   TYPE          T1             T2             T3             R1             R2             R3
             7      G     -7.463266E-04  -1.054582E-05   1.882710E-05   0.0            0.0            0.0
             8      G     -7.467982E-04  -1.804582E-05   1.917972E-05   0.0            0.0            0.0
             9      G     -7.465624E-04  -1.429582E-05   1.900341E-05   0.0            0.0            0.0
            10      G     -7.481122E-04  -9.840564E-06   3.382709E-05   0.0            0.0            0.0
            11      G     -7.485838E-04  -1.734056E-05   3.417972E-05   0.0            0.0            0.0
            12      G     -7.483480E-04  -1.359056E-05   3.400341E-05   0.0            0.0            0.0
           129      G     -7.473166E-04  -1.784106E-05   2.353482E-05   0.0            0.0            0.0
           130      G     -7.479921E-04  -1.757425E-05   2.920947E-05   0.0            0.0            0.0
           131      G     -7.468450E-04  -1.034106E-05   2.318219E-05   0.0            0.0            0.0
           132      G     -7.475205E-04  -1.007425E-05   2.885684E-05   0.0            0.0            0.0
           200      G     -7.472575E-04  -1.407277E-05   2.481865E-05   0.0            0.0            0.0

0                                                                                                            SUBCASE 5

                                             D I S P L A C E M E N T   V E C T O R

      POINT ID.   TYPE          T1             T2             T3             R1             R2             R3
             7      G      7.463266E-04   1.054582E-05  -1.882710E-05   0.0            0.0            0.0
             8      G      7.467982E-04   1.804582E-05  -1.917972E-05   0.0            0.0            0.0
             9      G      7.465624E-04   1.429582E-05  -1.900341E-05   0.0            0.0            0.0
            10      G      7.481122E-04   9.840564E-06  -3.382709E-05   0.0            0.0            0.0
            11      G      7.485838E-04   1.734056E-05  -3.417972E-05   0.0            0.0            0.0
            12      G      7.483480E-04   1.359056E-05  -3.400341E-05   0.0            0.0            0.0
           129      G      7.473166E-04   1.784106E-05  -2.353482E-05   0.0            0.0            0.0
           130      G      7.479921E-04   1.757425E-05  -2.920947E-05   0.0            0.0            0.0
           131      G      7.468450E-04   1.034106E-05  -2.318219E-05   0.0            0.0            0.0
           132      G      7.475205E-04   1.007425E-05  -2.885684E-05   0.0            0.0            0.0
           200      G      7.472575E-04   1.407277E-05  -2.481865E-05   0.0            0.0            0.0

0

0                                                                                                            SUBCASE 1              
 
                   S T R E S S E S   I N    T E T R A H E D R O N   S O L I D   E L E M E N T S   ( C T E T R A )
0                CORNER        ------CENTER AND CORNER POINT STRESSES---------       DIR.  COSINES       MEAN                   
  ELEMENT-ID    GRID-ID        NORMAL              SHEAR             PRINCIPAL       -A-  -B-  -C-     PRESSURE       VON MISES
0       546           0GRID CS  4 GP
0                CENTER  X  -4.999996E-01  XY   3.064646E-08   A   2.603470E-07  LX 0.0  1.00 0.0    1.666664E-01    4.999999E-01
                         Y   2.224241E-07  YZ   5.760327E-08   B  -4.999996E-01  LY 0.0  0.00 0.0
                         Z   2.982697E-07  ZX   3.735851E-07   C   2.603470E-07  LZ 0.0  0.00 0.0
0                    79  X  -4.999996E-01  XY   3.064646E-08   A   2.603470E-07  LX 0.0  1.00 0.0    1.666664E-01    4.999999E-01
                         Y   2.224241E-07  YZ   5.760327E-08   B  -4.999996E-01  LY 0.0  0.00 0.0
                         Z   2.982697E-07  ZX   3.735851E-07   C   2.603470E-07  LZ 0.0  0.00 0.0
0                   108  X  -4.999996E-01  XY   3.064646E-08   A   2.603470E-07  LX 0.0  1.00 0.0    1.666664E-01    4.999999E-01
                         Y   2.224241E-07  YZ   5.760327E-08   B  -4.999996E-01  LY 0.0  0.00 0.0
                         Z   2.982697E-07  ZX   3.735851E-07   C   2.603470E-07  LZ 0.0  0.00 0.0
0                   146  X  -4.999996E-01  XY   3.064646E-08   A   2.603470E-07  LX 0.0  1.00 0.0    1.666664E-01    4.999999E-01
                         Y   2.224241E-07  YZ   5.760327E-08   B  -4.999996E-01  LY 0.0  0.00 0.0
                         Z   2.982697E-07  ZX   3.735851E-07   C   2.603470E-07  LZ 0.0  0.00 0.0
0                    78  X  -4.999996E-01  XY   3.064646E-08   A   2.603470E-07  LX 0.0  1.00 0.0    1.666664E-01    4.999999E-01
                         Y   2.224241E-07  YZ   5.760327E-08   B  -4.999996E-01  LY 0.0  0.00 0.0
                         Z   2.982697E-07  ZX   3.735851E-07   C   2.603470E-07  LZ 0.0  0.00 0.0
0       547           0GRID CS  4 GP
0                CENTER  X  -4.996571E-01  XY   4.938064E-03   A  -4.845051E-03  LX 0.04 1.00-0.08   1.863037E-01    4.773473E-01
                         Y  -1.228182E-02  YZ   1.648746E-02   B  -5.034355E-01  LY 0.92-0.01 0.40
                         Z  -4.697235E-02  ZX   4.139677E-02   C  -5.063068E-02  LZ 0.40-0.09-0.91
0                    13  X  -4.996571E-01  XY   4.938064E-03   A  -4.845051E-03  LX 0.04 1.00-0.08   1.863037E-01    4.773473E-01
                         Y  -1.228182E-02  YZ   1.648746E-02   B  -5.034355E-01  LY 0.92-0.01 0.40
                         Z  -4.697235E-02  ZX   4.139677E-02   C  -5.063068E-02  LZ 0.40-0.09-0.91
0                   139  X  -4.996571E-01  XY   4.938064E-03   A  -4.845051E-03  LX 0.04 1.00-0.08   1.863037E-01    4.773473E-01
                         Y  -1.228182E-02  YZ   1.648746E-02   B  -5.034355E-01  LY 0.92-0.01 0.40
                         Z  -4.697235E-02  ZX   4.139677E-02   C  -5.063068E-02  LZ 0.40-0.09-0.91
0                     6  X  -4.996571E-01  XY   4.938064E-03   A  -4.845051E-03  LX 0.04 1.00-0.08   1.863037E-01    4.773473E-01
                         Y  -1.228182E-02  YZ   1.648746E-02   B  -5.034355E-01  LY 0.92-0.01 0.40
                         Z  -4.697235E-02  ZX   4.139677E-02   C  -5.063068E-02  LZ 0.40-0.09-0.91
0                   168  X  -4.996571E-01  XY   4.938064E-03   A  -4.845051E-03  LX 0.04 1.00-0.08   1.863037E-01    4.773473E-01
                         Y  -1.228182E-02  YZ   1.648746E-02   B  -5.034355E-01  LY 0.92-0.01 0.40
                         Z  -4.697235E-02  ZX   4.139677E-02   C  -5.063068E-02  LZ 0.40-0.09-0.91
