0                                                                                                            SUBCASE 1              
 
                                             D I S P L A C E M E N T   V E C T O R
 
      POINT ID.   TYPE          T1             T2             T3             R1             R2             R3
             1      G      0.0            0.0            0.0            0.0            0.0            0.0
             2      G      2.640000E-07   0.0            0.0            0.0            0.0            0.0
             3      G      0.0            2.640000E-07   0.0            0.0            0.0            0.0
             4      G      2.640000E-07   2.640000E-07   0.0            0.0            0.0            0.0
             5      G      4.235165E-22   8.999725E-22  -8.799999E-07   0.0            0.0            0.0
             6      G      2.640000E-07   2.646978E-23  -8.799999E-07   0.0            0.0            0.0
             7      G      4.764560E-22   2.640000E-07  -8.799999E-07   0.0            0.0            0.0
             8      G      2.640000E-07   2.640000E-07  -8.799999E-07   0.0            0.0            0.0

0                                                                                                            SUBCASE 1              
 
                      S T R E S S E S   I N   H E X A H E D R O N   S O L I D   E L E M E N T S   ( H E X A )
0                CORNER        ------CENTER AND CORNER POINT STRESSES---------       DIR.  COSINES       MEAN                   
  ELEMENT-ID    GRID-ID        NORMAL              SHEAR             PRINCIPAL       -A-  -B-  -C-     PRESSURE       VON MISES 
0       100           0GRID CS  8 GP
0                CENTER  X   1.332268E-15  XY  -4.440892E-16   A   1.776357E-15  LX 0.0  0.00 0.0    8.800000E+00    2.640000E+01
                         Y   8.881784E-16  YZ   8.881784E-16   B  -2.640000E+01  LY 0.0  0.00 0.0
                         Z  -2.640000E+01  ZX   0.0            C   1.776357E-15  LZ 0.0  1.00 0.0
0                     1  X   3.663736E-15  XY   6.661338E-16   A   1.776357E-15  LX 0.0  0.00 0.0    8.800000E+00    2.640000E+01
                         Y   1.998401E-15  YZ  -1.110223E-16   B  -2.640000E+01  LY 0.0  0.00 0.0
                         Z  -2.640000E+01  ZX   1.554312E-15   C   1.776357E-15  LZ 0.0  1.00 0.0
0                     5  X   6.494805E-15  XY   3.330669E-16   A   3.552714E-15  LX 0.0  0.00 0.0    8.800000E+00    2.640000E+01
                         Y   2.053913E-15  YZ  -1.942890E-15   B  -2.640000E+01  LY 0.0  0.00 0.0
                         Z  -2.640000E+01  ZX  -1.276756E-15   C   3.552714E-15  LZ 0.0  1.00 0.0
0                     6  X   9.992007E-16  XY  -3.608225E-15   A  -1.776357E-15  LX 0.0  0.00 0.0    8.800000E+00    2.640000E+01
                         Y  -4.218847E-15  YZ   3.885781E-15   B  -2.640000E+01  LY 0.0  0.00 0.0
                         Z  -2.640000E+01  ZX  -2.109424E-15   C  -1.776357E-15  LZ 0.0  1.00 0.0
0                     2  X  -8.881784E-16  XY   6.661338E-16   A  -1.776357E-15  LX 0.0  0.00 0.0    8.800000E+00    2.640000E+01
                         Y   0.0           YZ   1.554312E-15   B  -2.640000E+01  LY 0.0  0.00 0.0
                         Z  -2.640000E+01  ZX   2.553513E-15   C  -1.776357E-15  LZ 0.0  1.00 0.0
0                     3  X   1.554312E-15  XY   1.998401E-15   A   0.0           LX 0.0  0.00 0.0    8.800000E+00    2.640000E+01
                         Y   8.881784E-16  YZ  -6.661338E-16   B  -2.640000E+01  LY 0.0  0.00 0.0
                         Z  -2.640000E+01  ZX   1.998401E-15   C   0.0           LZ 0.0  1.00 0.0
0                     7  X  -6.328271E-15  XY   7.771561E-16   A  -7.105427E-15  LX 0.0  0.00 0.0    8.800000E+00    2.640000E+01
                         Y  -5.273559E-15  YZ  -2.109424E-15   B  -2.640000E+01  LY 0.0  0.00 0.0
                         Z  -2.640000E+01  ZX   2.997602E-15   C  -7.105427E-15  LZ 0.0  1.00 0.0
0                     8  X  -7.771561E-15  XY  -2.220446E-15   A  -5.329071E-15  LX 0.0  0.00 0.0    8.800000E+00    2.640000E+01
                         Y  -4.218847E-15  YZ   3.774758E-15   B  -2.640000E+01  LY 0.0  0.00 0.0
                         Z  -2.640000E+01  ZX   2.220446E-16   C  -5.329071E-15  LZ 0.0  1.00 0.0
0                     4  X   3.996803E-15  XY   1.332268E-15   A   3.552714E-15  LX 0.0  0.00 0.0    8.800000E+00    2.640000E+01
                         Y   3.552714E-15  YZ   4.440892E-16   B  -2.640000E+01  LY 0.0  0.00 0.0
                         Z  -2.640000E+01  ZX  -4.440892E-16   C   1.776357E-15  LZ 0.0  1.00 0.0
